SCIP Status        : solving was interrupted [time limit reached]
Total Time         :    3600.01
  solving          :    3600.00
  presolving       :       0.18 (included in solving)
  reading          :       0.01
  copying          :       1.71 (53 #copies) (minimal 0.00, maximal 0.06, average 0.03)
Original Problem   :
  Problem name     : bbbenchmark/g05_60.2.cut
  Variables        : 61 (60 binary, 0 integer, 0 implicit integer, 1 continuous)
  Constraints      : 1 initial, 1 maximal
  Objective        : minimize, 1 non-zeros (abs.min = 1, abs.max = 1)
Presolved Problem  :
  Problem name     : t_bbbenchmark/g05_60.2.cut
  Variables        : 946 (60 binary, 0 integer, 885 implicit integer, 1 continuous)
  Constraints      : 886 initial, 10887 maximal
  Objective        : minimize, 1 non-zeros (abs.min = 1, abs.max = 1)
  Nonzeros         : 3601 constraint, 122 clique table
Presolvers         :   ExecTime  SetupTime  Calls  FixedVars   AggrVars   ChgTypes  ChgBounds   AddHoles    DelCons    AddCons   ChgSides   ChgCoefs
  boundshift       :       0.00       0.00      0          0          0          0          0          0          0          0          0          0
  convertinttobin  :       0.00       0.00      0          0          0          0          0          0          0          0          0          0
  domcol           :       0.00       0.00      1          0          0          0          0          0          0          0          0          0
  dualagg          :       0.00       0.00      0          0          0          0          0          0          0          0          0          0
  dualcomp         :       0.00       0.00      1          0          0          0          0          0          0          0          0          0
  dualinfer        :       0.00       0.00      0          0          0          0          0          0          0          0          0          0
  dualsparsify     :       0.00       0.00      1          0          0          0          0          0          0          0          0          0
  gateextraction   :       0.00       0.00      0          0          0          0          0          0          0          0          0          0
  implics          :       0.00       0.00      2          0          0          0          0          0          0          0          0          0
  inttobinary      :       0.00       0.00      0          0          0          0          0          0          0          0          0          0
  qpkktref         :       0.00       0.00      0          0          0          0          0          0          0          0          0          0
  redvub           :       0.00       0.00      0          0          0          0          0          0          0          0          0          0
  sparsify         :       0.00       0.00      1          0          0          0          0          0          0          0          0          0
  stuffing         :       0.00       0.00      0          0          0          0          0          0          0          0          0          0
  trivial          :       0.00       0.00      4          0          0          0          0          0          0          0          0          0
  tworowbnd        :       0.00       0.00      0          0          0          0          0          0          0          0          0          0
  dualfix          :       0.00       0.00      4          0          0          0          0          0          0          0          0          0
  genvbounds       :       0.00       0.00      0          0          0          0          0          0          0          0          0          0
  probing          :       0.12       0.00      1          0          0          0          0          0          0          0          0          0
  pseudoobj        :       0.00       0.00      1          0          0          0          1          0          0          0          0          0
  symmetry         :       0.00       0.00      0          0          0          0          0          0          0          0          0          0
  vbounds          :       0.00       0.00      1          0          0          0          0          0          0          0          0          0
  and              :       0.01       0.00      2          0          0          0          0          0          0          0          0          0
  linear           :       0.00       0.00      2          0          0          0          0          0          0          0          0          0
  logicor          :       0.00       0.00      0          0          0          0          0          0          0          0          0          0
  nonlinear        :       0.04       0.01      5          0          0          0          1          0          0        885          0          0
  benders          :       0.00       0.00      0          0          0          0          0          0          0          0          0          0
  components       :       0.01       0.00      1          0          0          0          0          0          0          0          0          0
  root node        :          -          -      -          0          -          -         42          -          -          -          -          -
Constraints        :     Number  MaxNumber  #Separate #Propagate    #EnfoLP    #EnfoRelax  #EnfoPS    #Check   #ResProp    Cutoffs    DomReds       Cuts    Applied      Conss   Children
  benderslp        :          0          0          0          0      92798          0          0      18671          0          0          0          0          0          0          0
  integral         :          0          0          0          0      92798          0          0      18671          0          3       7923          0          0       3490     180470
  and              :        885        885     107935     601115         11          0          0         52     129407         22    3362628       2169       2063          0          0
  linear           :          1+         3         64     601093         11          0          0         50          0          1          0          0          0          0          0
  logicor          :          0+     10001          0     159300          0          0          0          0        663        612        125          0          0          0          0
  benders          :          0          0          0          0         11          0          0         53          0          0          0          0          0          0          0
  countsols        :          0          0          0          0         11          0          0         53          0          0          0          0          0          0          0
  components       :          0          0          0          0          0          0          0          0          0          0          0          0          0          0          0
Constraint Timings :  TotalTime  SetupTime   Separate  Propagate     EnfoLP     EnfoPS     EnfoRelax   Check    ResProp    SB-Prop
  benderslp        :       0.07       0.00       0.00       0.00       0.06       0.00       0.00       0.01       0.00       0.00
  integral         :      48.19       0.00       0.00       0.00      48.15       0.00       0.00       0.04       0.00       0.00
  and              :      69.77       0.00      41.18      27.88       0.00       0.00       0.00       0.00       0.15       0.56
  linear           :       0.46       0.00       0.00       0.46       0.00       0.00       0.00       0.00       0.00       0.00
  logicor          :      32.23       0.00       0.00      32.14       0.00       0.00       0.00       0.00       0.00       0.09
  benders          :       0.00       0.00       0.00       0.00       0.00       0.00       0.00       0.00       0.00       0.00
  countsols        :       0.00       0.00       0.00       0.00       0.00       0.00       0.00       0.00       0.00       0.00
  components       :       0.17       0.00       0.00       0.17       0.00       0.00       0.00       0.00       0.00       0.00
Propagators        : #Propagate   #ResProp    Cutoffs    DomReds
  dualfix          :          4          0          0          0
  genvbounds       :          0          0          0          0
  nlobbt           :          0          0          0          0
  obbt             :          0          0          0          0
  probing          :          0          0          0          0
  pseudoobj        :     474412          0          0         42
  redcost          :     231369          0          0     433819
  rootredcost      :         32          0          0          0
  symmetry         :          0          0          0          0
  vbounds          :      42655          0          0          0
Propagator Timings :  TotalTime  SetupTime   Presolve  Propagate    ResProp    SB-Prop
  dualfix          :       0.00       0.00       0.00       0.00       0.00       0.00
  genvbounds       :       0.46       0.00       0.00       0.45       0.00       0.01
  nlobbt           :       0.00       0.00       0.00       0.00       0.00       0.00
  obbt             :       0.00       0.00       0.00       0.00       0.00       0.00
  probing          :       0.12       0.00       0.12       0.00       0.00       0.00
  pseudoobj        :       0.76       0.00       0.00       0.76       0.00       0.00
  redcost          :       9.86       0.00       0.00       9.86       0.00       0.00
  rootredcost      :       0.51       0.00       0.00       0.51       0.00       0.00
  symmetry         :       0.38       0.00       0.00       0.37       0.00       0.01
  vbounds          :       0.51       0.00       0.00       0.51       0.00       0.00
Conflict Analysis  :       Time      Calls    Success    DomReds  Conflicts   Literals    Reconvs ReconvLits   Dualrays   Nonzeros   LP Iters   (pool size: [10000,10000])
  propagation      :       0.02        634        424          -        490       28.8          0        0.0          -          -          -
  infeasible LP    :       0.00          0          0          -          0        0.0          0        0.0          3       44.3          0
  bound exceed. LP :      19.62      13093       9283          -      57199       36.1          6       22.8          0        0.0      67442
  strong branching :       0.00          0          0          -          0        0.0          0        0.0          -          -          0
  pseudo solution  :       0.00          0          0          -          0        0.0          0        0.0          -          -          -
  applied globally :       0.24          -          -          0      26391       35.6          -          -          3          -          -
  applied locally  :          -          -          -          0          0        0.0          -          -          0          -          -
Separators         :   ExecTime  SetupTime      Calls  RootCalls    Cutoffs    DomReds  FoundCuts ViaPoolAdd  DirectAdd    Applied ViaPoolApp  DirectApp      Conss
  cut pool         :       2.83          -      26669         90          -          -      23067     386493          -          -          -          -          -    (maximal pool size:       1381)
  aggregation      :     160.81       0.00       4457         64          0          0          6          2          0          0          0          0          0
  > cmir           :          -          -          -          -          -          -          -          2          0          0          0          0          -
  > flowcover      :          -          -          -          -          -          -          -          0          0          0          0          0          -
  > knapsackcover  :          -          -          -          -          -          -          -          0          0          0          0          0          -
  cgmip            :       0.00       0.00          0          0          0          0          0          0          0          0          0          0          0
  clique           :       0.00       0.00         64         64          0          0          0          0          0          0          0          0          0
  closecuts        :       0.00       0.00          0          0          0          0          0          0          0          0          0          0          0
  convexproj       :       0.00       0.00          0          0          0          0          0          0          0          0          0          0          0
  disjunctive      :       0.00       0.00          0          0          0          0          0          0          0          0          0          0          0
  eccuts           :       0.00       0.00          0          0          0          0          0          0          0          0          0          0          0
  gauge            :       0.00       0.00          0          0          0          0          0          0          0          0          0          0          0
  gomory           :       0.00       0.00          0          0          0          0          0          0          0          0          0          0          0
  > gomorymi       :          -          -          -          -          -          -          -          0          0          0          0          0          -
  > strongcg       :          -          -          -          -          -          -          -          0          0          0          0          0          -
  impliedbounds    :       0.19       0.00       4457         64          0          0          0          0          0          0          0          0          0
  interlattice     :       0.00       0.00          0          0          0          0          0          0          0          0          0          0          0
  interminor       :       0.00       0.00          0          0          0          0          0          0          0          0          0          0          0
  intersub         :       0.13       0.00         30         30          0          0         30          0         30         30          0         30          0
  intobj           :       0.00       0.00          0          0          0          0          0          0          0          0          0          0          0
  mcf              :       0.01       0.00          1          1          0          0          0          0          0          0          0          0          0
  minor            :       0.02       0.00          0          0          0          0          0          0          0          0          0          0          0
  mixing           :       0.04       0.00       4457         64          0          0          0          0          0          0          0          0          0
  oddcycle         :       0.00       0.00          0          0          0          0          0          0          0          0          0          0          0
  rapidlearning    :       0.08       0.00          0          0          0          0          0          0          0          0          0          0          0
  rlt              :       0.00       0.00         10         10          0          0          0          0          0          0          0          0          0
  zerohalf         :      20.82       0.00       3650         20          0          0      23061     386491          0      82364      82364          0          0
Cutselectors       :   ExecTime  SetupTime      Calls  RootCalls   Selected     Forced   Filtered  RootSelec   RootForc   RootFilt 
  hybrid           :       0.50       0.00      17287         63      84457          0     304235        210          0         18
Pricers            :   ExecTime  SetupTime      Calls       Vars
  problem variables:       0.00          -          0          0
Branching Rules    :   ExecTime  SetupTime   BranchLP  BranchExt   BranchPS    Cutoffs    DomReds       Cuts      Conss   Children
  allfullstrong    :       0.00       0.00          0          0          0          0          0          0          0          0
  cloud            :       0.00       0.00          0          0          0          0          0          0          0          0
  distribution     :       0.00       0.00          0          0          0          0          0          0          0          0
  fullstrong       :       0.00       0.00          0          0          0          0          0          0          0          0
  inference        :       0.00       0.00          0          0          0          0          0          0          0          0
  leastinf         :       0.00       0.00          0          0          0          0          0          0          0          0
  lookahead        :       0.00       0.00          0          0          0          0          0          0          0          0
  mostinf          :       0.00       0.00          0          0          0          0          0          0          0          0
  multaggr         :       0.00       0.00          0          0          0          0          0          0          0          0
  nodereopt        :       0.00       0.00          0          0          0          0          0          0          0          0
  pscost           :       0.00       0.00          0          0          0          0          0          0          0          0
  random           :       0.00       0.00          0          0          0          0          0          0          0          0
  relpscost        :      47.82       0.00      92787          0          0          3       7923          0       3565     180470
  vanillafullstrong:       0.00       0.00          0          0          0          0          0          0          0          0
Primal Heuristics  :   ExecTime  SetupTime      Calls      Found       Best
  LP solutions     :       0.02          -          -         11         11
  relax solutions  :       0.00          -          -          0          0
  pseudo solutions :       0.00          -          -          0          0
  strong branching :       0.04          -          -          5          5
  actconsdiving    :       0.00       0.00          0          0          0
  adaptivediving   :       2.56       0.00         92          0          0
  alns             :       6.10       0.00         37         12          8
  bound            :       0.00       0.00          0          0          0
  clique           :       0.00       0.00          1          0          0
  coefdiving       :       0.00       0.00          0          0          0
  completesol      :       0.00       0.00          0          0          0
  conflictdiving   :      11.60       0.00        507          2          2
  crossover        :       0.10       0.00          2          1          1
  dins             :       0.00       0.00          0          0          0
  distributiondivin:      29.67       0.00        507          0          0
  dps              :       0.00       0.00          0          0          0
  dualval          :       0.00       0.00          0          0          0
  farkasdiving     :       0.03       0.00          0          0          0
  feaspump         :       0.02       0.00          0          0          0
  fixandinfer      :       0.00       0.00          0          0          0
  fracdiving       :      19.15       0.00        507          0          0
  gins             :       0.06       0.00          0          0          0
  guideddiving     :      16.53       0.00        507          2          2
  indicator        :       0.08       0.00          0          0          0
  indicatordiving  :       0.00       0.00          0          0          0
  intdiving        :       0.00       0.00          0          0          0
  intshifting      :       0.13       0.00         29          0          0
  linesearchdiving :      15.08       0.00        507          0          0
  localbranching   :       0.00       0.00          0          0          0
  locks            :       0.01       0.00          1          0          0
  lpface           :       0.11       0.00          0          0          0
  mpec             :       1.25       0.00          1          0          0
  multistart       :       0.00       0.00          0          0          0
  mutation         :       0.00       0.00          0          0          0
  nlpdiving        :       4.76       0.00         10          0          0
  objpscostdiving  :      28.45       0.00        105         10          1
  octane           :       0.00       0.00          0          0          0
  ofins            :       0.18       0.00          0          0          0
  oneopt           :       0.17       0.00         42          0          0
  padm             :       0.00       0.00          0          0          0
  proximity        :       0.00       0.00          0          0          0
  pscostdiving     :      17.33       0.00        507          3          3
  randrounding     :       0.94       0.00      18614          0          0
  rens             :       0.00       0.00          0          0          0
  reoptsols        :       0.00       0.00          0          0          0
  repair           :       0.00       0.00          0          0          0
  rins             :       5.26       0.00         16          0          0
  rootsoldiving    :      14.83       0.00         51          3          0
  rounding         :       0.99       0.00       4639          0          0
  shiftandpropagate:       0.00       0.00          0          0          0
  shifting         :      36.34       0.00      17168          9          9
  simplerounding   :       0.16       0.00          0          0          0
  subnlp           :     109.77       0.00          0          0          0
  trivial          :       0.00       0.00          2          2          2
  trivialnegation  :       0.00       0.00          0          0          0
  trustregion      :       0.00       0.00          0          0          0
  trysol           :       0.15       0.00          0          0          0
  twoopt           :       0.00       0.00          0          0          0
  undercover       :       1.00       0.00          1          1          1
  vbounds          :       0.00       0.00          0          0          0
  veclendiving     :       9.52       0.00        507          0          0
  zeroobj          :       0.00       0.00          0          0          0
  zirounding       :       0.39       0.00       1000          0          0
  other solutions  :          -          -          -          0          -
Diving (single)    :      Calls      Nodes   LP Iters Backtracks  Conflicts   MinDepth   MaxDepth   AvgDepth  RoundSols  NLeafSols  MinSolDpt  MaxSolDpt  AvgSolDpt
  actconsdiving    :          0          -          -          -          -          -          -          -          -          -          -          -          -
  coefdiving       :          0          -          -          -          -          -          -          -          -          -          -          -          -
  conflictdiving   :        507       9026     109124        557       8897         24         45       32.5          0          2         38         41       39.5
  distributiondivin:        507       6798     206033        693       4575         21         38       27.5          0          -          -          -          -
  farkasdiving     :          0          -          -          -          -          -          -          -          -          -          -          -          -
  fracdiving       :        507      46622     177817        556       3609         28        270      106.2          0          -          -          -          -
  guideddiving     :        507      42166     167015        345       2603         27        228       97.9          0          2         51         54       52.5
  indicatordiving  :          0          -          -          -          -          -          -          -          -          -          -          -          -
  linesearchdiving :        507      11539     154464        626       9686         24         52       37.0          0          -          -          -          -
  pscostdiving     :        507       9527     191256        528       7556         22         45       33.3          0          3         39         45       41.3
  veclendiving     :        507       9330      77361        520       9879         25         49       32.7          0          -          -          -          -
Diving (adaptive)  :      Calls      Nodes   LP Iters Backtracks  Conflicts   MinDepth   MaxDepth   AvgDepth  RoundSols  NLeafSols  MinSolDpt  MaxSolDpt  AvgSolDpt
  actconsdiving    :         16        234       6380         26        155         25         33       28.1          0          -          -          -          -
  coefdiving       :         33        626       5904         34        790         29         42       33.2          0          -          -          -          -
  conflictdiving   :          0          -          -          -          -          -          -          -          -          -          -          -          -
  distributiondivin:          0          -          -          -          -          -          -          -          -          -          -          -          -
  farkasdiving     :          0          -          -          -          -          -          -          -          -          -          -          -          -
  fracdiving       :          3        363        898          4         17        103        179      135.7          0          -          -          -          -
  guideddiving     :          4        286       1162          4         38         50        106       86.5          0          -          -          -          -
  indicatordiving  :          0          -          -          -          -          -          -          -          -          -          -          -          -
  linesearchdiving :         12        274       2843         14        180         27         48       38.2          0          -          -          -          -
  pscostdiving     :         10        188       3771         10        121         30         36       32.7          0          -          -          -          -
  veclendiving     :         14        253       2010         14        260         30         35       32.4          0          -          -          -          -
Neighborhoods      :      Calls  SetupTime  SolveTime SolveNodes       Sols       Best       Exp3  EpsGreedy        UCB TgtFixRate  Opt  Inf Node Stal  Sol  Usr Othr Actv
  rens             :          2       0.02       0.00          0          0          0    0.00000   -1.00000    0.30395      0.700    0    1    0    0    0    0    1    1
  rins             :          2       0.03       0.00          0          0          0    0.00000   -1.00000    0.30395      0.700    0    1    0    0    0    0    1    1
  mutation         :          8       0.45       0.52        227          3          3    0.00000   -1.00000    0.52658      0.553    2    3    0    3    0    0    0    1
  localbranching   :          3       0.22       0.20         89          0          0    0.00000   -1.00000    0.46526      0.662    0    2    0    1    0    0    0    1
  crossover        :          3       0.22       0.05          4          0          0    0.00000   -1.00000    0.54073      0.437    0    3    0    0    0    0    0    1
  proximity        :         13       0.87       2.52        587          9          5    0.00000   -1.00000    0.53466      0.570    5    2    0    6    0    0    0    1
  zeroobjective    :          3       0.24       0.18         84          0          0    0.00000   -1.00000    0.46526      0.662    0    2    0    1    0    0    0    1
  dins             :          3       0.12       0.02          2          0          0    0.00000   -1.00000    0.37637      0.550    0    2    0    0    0    0    1    1
  trustregion      :          0       0.00       0.00          0          0          0    0.00000   -1.00000    1.00000      0.900    0    0    0    0    0    0    0    0
Expressions        :   #IntEval  IntEvalTi   #RevProp  RevPropTi    DomReds    Cutoffs  #Estimate  EstimTime  Branching  #Simplify SimplifyTi Simplified
  pow              :          0       0.00          0       0.00          0          0          0       0.00          0          0       0.00          0
  prod             :       3540       0.00          0       0.00          0          0          0       0.00          0       2655       0.00          0
  sum              :          8       0.00          2       0.00          0          0          0       0.00          0          3       0.01          2
  var              :       3327       0.00          0       0.00          0          0          0       0.00          0       6378       0.00          0
  varidx           :          0       0.00          0       0.00          0          0          0       0.00          0          0       0.00          0
LP                 :       Time      Calls Iterations  Iter/call   Iter/sec  Time-0-It Calls-0-It    ItLimit
  primal LP        :     136.13      17772          0       0.00       0.00     136.03      17772
  dual LP          :    2620.36     216611   19914223     105.86    7599.80       9.63      28500
  lex dual LP      :       0.00          0          0       0.00          -
  barrier LP       :       0.00          0          0       0.00          -       0.00          0
  resolve instable :       0.00          0          0       0.00          -
  diving/probing LP:     121.59      12976    1463522     112.79   12036.53
  strong branching :      19.94       4054     229083      56.51   11488.62          -          -         98
    (at root node) :          -         19       4593     241.74          -
  conflict analysis:       8.27       6818      67442       9.89    8155.02
NLP relaxation     :
  solve time       :       4.76 (10 calls)
  convexity        :  nonconvex (1 linear rows, 0 convex ineq., 0 nonconvex ineq., 885 nonlinear eq. or two-sided ineq.)
NLP Solvers        :  #Problems  ProblemTi    #Solves  SolveTime      #Iter  Time/Iter      #Okay #TimeLimit #IterLimit #LObjLimit #Interrupt  #NumError #EvalError  #OutOfMem #LicenseEr #OtherTerm   #GlobOpt    #LocOpt  #Feasible #LocInfeas #GlobInfea #Unbounded   #Unknown
  ipopt            :          2       5.56         13      10.62        308       0.03         13          0          0          0          0          0          0          0          0          0          0          0          0          3          0          0         10
B&B Tree           :
  number of runs   :          1
  nodes            :     168369 (90235 internal, 78134 leaves)
  feasible leaves  :         11
  infeas. leaves   :         95
  objective leaves :      78027
  nodes (total)    :     168369 (90235 internal, 78134 leaves)
  nodes left       :      12054
  max depth        :         39
  max depth (total):         39
  backtracks       :      42887 (25.5%)
  early backtracks :          0 (0.0%)
  nodes exc. ref.  :          0 (0.0%)
  delayed cutoffs  :          2
  repropagations   :         58 (216 domain reductions, 0 cutoffs)
  avg switch length:       4.25
  switching time   :     176.48
Estim. Tree Size   :    1683981
Estimation Tree    : 180471 nodes (168417 visited, 90235 internal, 78182 leaves, 12054 open), weight: 0.0826 completed 0.3159
Estimations        :      estim      value      trend resolution     smooth
  wbe              :    1891903          -          -          -          -
  tree-profile     :         -1          -          -          -          -
  gap              :     849799    0.89936    0.00004        128     832806
  tree-weight      :    1683982    0.08265    0.00015        128    1713688
  leaf-frequency   :    1195858    0.46421    0.00001        128    1482820
  ssg              :    1357575    0.54910   -0.00012        128    1356111
  open-nodes       :     336834 12054.00000    6.37661        128     336260
Root Node          :
  First LP value   : -1.00000000000000e+00
  First LP Iters   :        565 (18833.33 Iter/sec)
  First LP Time    :       0.03
  Final Dual Bound : -8.93766623682865e-01
  Final Root Iters :       2814
  Root LP Estimate : -5.33954447560956e-01
Solution           :
  Solutions found  :         61 (45 improvements)
  First Solution   : +1.00000000000000e+05   (in run 1, after 0 nodes, 0.02 seconds, depth 0, found by <trivial>)
  Gap First Sol.   :   infinite
  Gap Last Sol.    :      11.70 %
  Primal Bound     : -5.97740112994351e-01   (in run 1, after 152461 nodes, 3221.91 seconds, depth 22, found by <relaxation>)
  Dual Bound       : -6.64624697336562e-01
  Gap              :      11.19 %
Integrals          :      Total       Avg%
  primal-dual      :   54756.36      15.21
  primal-ref       :          -          - (not evaluated)
  dual-ref         :          -          - (not evaluated)
